************************************************************************
file with basedata            : j9023_.bas
initial value random generator: 15776
************************************************************************
projects                      :  1
jobs (incl. supersource/sink ):  92
horizon                       :  503
RESOURCES
  - renewable                 :  4   R
  - nonrenewable              :  0   N
  - doubly constrained        :  0   D
************************************************************************
PROJECT INFORMATION:
pronr.  #jobs rel.date duedate tardcost  MPM-Time
    1     90      0       90       38       90
************************************************************************
PRECEDENCE RELATIONS:
jobnr.    #modes  #successors   successors
   1        1          3           2   3   4
   2        1          3          14  18  37
   3        1          3          11  29  44
   4        1          2           5  72
   5        1          3           6   7  12
   6        1          3          19  43  73
   7        1          3           8   9  22
   8        1          3          10  16  17
   9        1          2          15  33
  10        1          2          13  63
  11        1          3          27  36  65
  12        1          3          23  38  58
  13        1          3          15  34  45
  14        1          3          21  35  47
  15        1          1          86
  16        1          3          34  43  52
  17        1          2          20  30
  18        1          3          24  31  39
  19        1          3          26  53  82
  20        1          1          25
  21        1          1          28
  22        1          3          49  56  90
  23        1          1          40
  24        1          1          75
  25        1          2          64  84
  26        1          1          42
  27        1          1          88
  28        1          1          82
  29        1          2          46  73
  30        1          2          31  54
  31        1          2          32  71
  32        1          2          67  87
  33        1          3          39  66  76
  34        1          3          47  69  76
  35        1          1          53
  36        1          1          70
  37        1          3          51  67  89
  38        1          3          40  57  77
  39        1          3          41  46  47
  40        1          1          66
  41        1          1          43
  42        1          2          59  65
  43        1          2          56  69
  44        1          1          80
  45        1          3          48  60  74
  46        1          1          56
  47        1          3          50  61  78
  48        1          2          59  88
  49        1          2          52  71
  50        1          1          58
  51        1          2          53  91
  52        1          2          77  79
  53        1          2          60  80
  54        1          2          55  62
  55        1          3          57  60  63
  56        1          2          71  75
  57        1          3          66  68  78
  58        1          1          62
  59        1          1          76
  60        1          2          64  68
  61        1          2          62  65
  62        1          2          68  73
  63        1          1          91
  64        1          1          83
  65        1          1          85
  66        1          1          69
  67        1          2          75  80
  68        1          1          81
  69        1          1          81
  70        1          2          74  78
  71        1          1          85
  72        1          2          74  77
  73        1          1          79
  74        1          1          82
  75        1          1          91
  76        1          2          81  83
  77        1          1          84
  78        1          2          79  84
  79        1          1          85
  80        1          1          90
  81        1          1          86
  82        1          2          83  87
  83        1          1          86
  84        1          1          87
  85        1          1          89
  86        1          1          90
  87        1          1          88
  88        1          1          89
  89        1          1          92
  90        1          1          92
  91        1          1          92
  92        1          0        
************************************************************************
REQUESTS/DURATIONS:
jobnr. mode duration  R 1  R 2  R 3  R 4
------------------------------------------------------------------------
  1      1     0       0    0    0    0
  2      1     8       2    0    0    0
  3      1     8       0    0    0    6
  4      1     4       4    2    0    0
  5      1     5       0    5    0    0
  6      1     6       0    0    3    0
  7      1     5       2    0    4    0
  8      1     6       0    9    0    2
  9      1     6       4    7    9    0
 10      1     6       1   10    0    3
 11      1     9       1    2    0    0
 12      1     3       0    5    3    0
 13      1    10       5    9    1    0
 14      1     5       0    0    0    1
 15      1     9       0    2    0    0
 16      1     3       0    0    0    6
 17      1     2       8    3    0    0
 18      1     6       0    9    0   10
 19      1     8       2    0   10    1
 20      1    10       8    4    0   10
 21      1     7       7    0    6    5
 22      1     2       8    0    6    9
 23      1     9       0   10    6    6
 24      1     7       3    0    0    9
 25      1    10       9    0    0    0
 26      1     9       0    0    9    0
 27      1     5       0    1    2    0
 28      1     5       2    0    9    8
 29      1     4       0    0    0    9
 30      1     1      10    0    1    0
 31      1    10       0    2    0    9
 32      1     5      10    0    4    0
 33      1     5       5    1    4    0
 34      1     3       0    0   10    0
 35      1     4       6    6    5    0
 36      1     1       0    0    0    6
 37      1     2       1    1    0    4
 38      1     8      10    0    0    1
 39      1     8       0    8    3    8
 40      1     1       0   10    3    9
 41      1     7       0    0    8    0
 42      1     1       5    0    0    0
 43      1     2      10    9    4    6
 44      1     6       6    7    0    0
 45      1     5       0    0    2    5
 46      1     3       5    0    5    3
 47      1     7       0    1    0    6
 48      1     3       0    0    0    4
 49      1     9       0    0    0    3
 50      1     3       0    6    0    6
 51      1     5       0    5    0    2
 52      1     5       7    0    0    0
 53      1     1       3    0    0    0
 54      1     1       0    5    0    0
 55      1     3       4    0   10    0
 56      1     1       2    4    6    5
 57      1     4      10    0    6    0
 58      1     7       0    3    0    0
 59      1    10       6    7    0    6
 60      1     9       8    1    0    0
 61      1     2       4    0    0   10
 62      1     9       0    7    0    5
 63      1     6      10    0    0    6
 64      1     9       9    0    0    0
 65      1    10       0   10    8    3
 66      1     8       7   10    0    5
 67      1     5       0    0    0    3
 68      1     9      10    0    0    0
 69      1     6       0    6    0    0
 70      1     3       0    6    8    4
 71      1     8       0    0    8    0
 72      1     9       2    9    9    0
 73      1     9       8    0    0   10
 74      1     3       7    0    0    8
 75      1     4       5    7    4    3
 76      1     4       0    0    7    0
 77      1     2       3    0    4    0
 78      1     3       6    0    8    0
 79      1     2      10    0    0    7
 80      1     5       0    1    1    0
 81      1     9       0    4    5    0
 82      1     6       0    1    0    0
 83      1     1       8    9    0   10
 84      1    10       9    7    4    0
 85      1     9       0    2    0    0
 86      1     6       4    4    0    1
 87      1     5       0    0    0   10
 88      1    10       0    0    0    4
 89      1     5       0    0    5    1
 90      1     1       0    1    2    2
 91      1     8       8    1    6    0
 92      1     0       0    0    0    0
************************************************************************
RESOURCEAVAILABILITIES:
  R 1  R 2  R 3  R 4
   32   32   32   31
************************************************************************
